* #variable= 25 #constraint= 1 #product= 1757 sizeproduct= 5534
min: +64 x1 x2 x3 x4 +64 x1 x2 x4 x5 +64 x1 x2 x5 x6 +64 x1 x2 x6 x7 +64 x1 x2 x7 x8 +64 x1 x2 x8 x9 +64 x1 x2 x9 x10 +64 x1 x2 x10 x11 +64 x1 x2 x11 x12 +64 x1 x2 x12 x13 +64 x1 x3 x4 x6 +64 x1 x3 x5 x7 +64 x1 x3 x6 x8 +64 x1 x3 x7 x9 +64 x1 x3 x8 x10 +64 x1 x3 x9 x11 +64 x1 x3 x10 x12 +64 x1 x3 x11 x13 +64 x1 x4 x5 x8 +64 x1 x4 x6 x9 +64 x1 x4 x7 x10 +64 x1 x4 x8 x11 +64 x1 x4 x9 x12 +64 x1 x4 x10 x13 +64 x1 x5 x6 x10 +64 x1 x5 x7 x11 +64 x1 x5 x8 x12 +64 x1 x5 x9 x13 +64 x1 x6 x7 x12 +64 x1 x6 x8 x13 +128 x2 x3 x4 x5 +128 x2 x3 x5 x6 +128 x2 x3 x6 x7 +128 x2 x3 x7 x8 +128 x2 x3 x8 x9 +128 x2 x3 x9 x10 +128 x2 x3 x10 x11 +128 x2 x3 x11 x12 +128 x2 x3 x12 x13 +64 x2 x3 x13 x14 +128 x2 x4 x5 x7 +128 x2 x4 x6 x8 +128 x2 x4 x7 x9 +128 x2 x4 x8 x10 +128 x2 x4 x9 x11 +128 x2 x4 x10 x12 +128 x2 x4 x11 x13 +64 x2 x4 x12 x14 +128 x2 x5 x6 x9 +128 x2 x5 x7 x10 +128 x2 x5 x8 x11 +128 x2 x5 x9 x12 +128 x2 x5 x10 x13 +64 x2 x5 x11 x14 +128 x2 x6 x7 x11 +128 x2 x6 x8 x12 +128 x2 x6 x9 x13 +64 x2 x6 x10 x14 +128 x2 x7 x8 x13 +64 x2 x7 x9 x14 +192 x3 x4 x5 x6 +192 x3 x4 x6 x7 +192 x3 x4 x7 x8 +192 x3 x4 x8 x9 +192 x3 x4 x9 x10 +192 x3 x4 x10 x11 +192 x3 x4 x11 x12 +192 x3 x4 x12 x13 +128 x3 x4 x13 x14 +64 x3 x4 x14 x15 +192 x3 x5 x6 x8 +192 x3 x5 x7 x9 +192 x3 x5 x8 x10 +192 x3 x5 x9 x11 +192 x3 x5 x10 x12 +192 x3 x5 x11 x13 +128 x3 x5 x12 x14 +64 x3 x5 x13 x15 +192 x3 x6 x7 x10 +192 x3 x6 x8 x11 +192 x3 x6 x9 x12 +192 x3 x6 x10 x13 +128 x3 x6 x11 x14 +64 x3 x6 x12 x15 +192 x3 x7 x8 x12 +192 x3 x7 x9 x13 +128 x3 x7 x10 x14 +64 x3 x7 x11 x15 +128 x3 x8 x9 x14 +64 x3 x8 x10 x15 +256 x4 x5 x6 x7 +256 x4 x5 x7 x8 +256 x4 x5 x8 x9 +256 x4 x5 x9 x10 +256 x4 x5 x10 x11 +256 x4 x5 x11 x12 +256 x4 x5 x12 x13 +192 x4 x5 x13 x14 +128 x4 x5 x14 x15 +64 x4 x5 x15 x16 +256 x4 x6 x7 x9 +256 x4 x6 x8 x10 +256 x4 x6 x9 x11 +256 x4 x6 x10 x12 +256 x4 x6 x11 x13 +192 x4 x6 x12 x14 +128 x4 x6 x13 x15 +64 x4 x6 x14 x16 +256 x4 x7 x8 x11 +256 x4 x7 x9 x12 +256 x4 x7 x10 x13 +192 x4 x7 x11 x14 +128 x4 x7 x12 x15 +64 x4 x7 x13 x16 +256 x4 x8 x9 x13 +192 x4 x8 x10 x14 +128 x4 x8 x11 x15 +64 x4 x8 x12 x16 +128 x4 x9 x10 x15 +64 x4 x9 x11 x16 +320 x5 x6 x7 x8 +320 x5 x6 x8 x9 +320 x5 x6 x9 x10 +320 x5 x6 x10 x11 +320 x5 x6 x11 x12 +320 x5 x6 x12 x13 +256 x5 x6 x13 x14 +192 x5 x6 x14 x15 +128 x5 x6 x15 x16 +64 x5 x6 x16 x17 +320 x5 x7 x8 x10 +320 x5 x7 x9 x11 +320 x5 x7 x10 x12 +320 x5 x7 x11 x13 +256 x5 x7 x12 x14 +192 x5 x7 x13 x15 +128 x5 x7 x14 x16 +64 x5 x7 x15 x17 +320 x5 x8 x9 x12 +320 x5 x8 x10 x13 +256 x5 x8 x11 x14 +192 x5 x8 x12 x15 +128 x5 x8 x13 x16 +64 x5 x8 x14 x17 +256 x5 x9 x10 x14 +192 x5 x9 x11 x15 +128 x5 x9 x12 x16 +64 x5 x9 x13 x17 +128 x5 x10 x11 x16 +64 x5 x10 x12 x17 +384 x6 x7 x8 x9 +384 x6 x7 x9 x10 +384 x6 x7 x10 x11 +384 x6 x7 x11 x12 +384 x6 x7 x12 x13 +320 x6 x7 x13 x14 +256 x6 x7 x14 x15 +192 x6 x7 x15 x16 +128 x6 x7 x16 x17 +64 x6 x7 x17 x18 +384 x6 x8 x9 x11 +384 x6 x8 x10 x12 +384 x6 x8 x11 x13 +320 x6 x8 x12 x14 +256 x6 x8 x13 x15 +192 x6 x8 x14 x16 +128 x6 x8 x15 x17 +64 x6 x8 x16 x18 +384 x6 x9 x10 x13 +320 x6 x9 x11 x14 +256 x6 x9 x12 x15 +192 x6 x9 x13 x16 +128 x6 x9 x14 x17 +64 x6 x9 x15 x18 +256 x6 x10 x11 x15 +192 x6 x10 x12 x16 +128 x6 x10 x13 x17 +64 x6 x10 x14 x18 +128 x6 x11 x12 x17 +64 x6 x11 x13 x18 +448 x7 x8 x9 x10 +448 x7 x8 x10 x11 +448 x7 x8 x11 x12 +448 x7 x8 x12 x13 +384 x7 x8 x13 x14 +320 x7 x8 x14 x15 +256 x7 x8 x15 x16 +192 x7 x8 x16 x17 +128 x7 x8 x17 x18 +64 x7 x8 x18 x19 +448 x7 x9 x10 x12 +448 x7 x9 x11 x13 +384 x7 x9 x12 x14 +320 x7 x9 x13 x15 +256 x7 x9 x14 x16 +192 x7 x9 x15 x17 +128 x7 x9 x16 x18 +64 x7 x9 x17 x19 +384 x7 x10 x11 x14 +320 x7 x10 x12 x15 +256 x7 x10 x13 x16 +192 x7 x10 x14 x17 +128 x7 x10 x15 x18 +64 x7 x10 x16 x19 +256 x7 x11 x12 x16 +192 x7 x11 x13 x17 +128 x7 x11 x14 x18 +64 x7 x11 x15 x19 +128 x7 x12 x13 x18 +64 x7 x12 x14 x19 +512 x8 x9 x10 x11 +512 x8 x9 x11 x12 +512 x8 x9 x12 x13 +448 x8 x9 x13 x14 +384 x8 x9 x14 x15 +320 x8 x9 x15 x16 +256 x8 x9 x16 x17 +192 x8 x9 x17 x18 +128 x8 x9 x18 x19 +64 x8 x9 x19 x20 +512 x8 x10 x11 x13 +448 x8 x10 x12 x14 +384 x8 x10 x13 x15 +320 x8 x10 x14 x16 +256 x8 x10 x15 x17 +192 x8 x10 x16 x18 +128 x8 x10 x17 x19 +64 x8 x10 x18 x20 +384 x8 x11 x12 x15 +320 x8 x11 x13 x16 +256 x8 x11 x14 x17 +192 x8 x11 x15 x18 +128 x8 x11 x16 x19 +64 x8 x11 x17 x20 +256 x8 x12 x13 x17 +192 x8 x12 x14 x18 +128 x8 x12 x15 x19 +64 x8 x12 x16 x20 +128 x8 x13 x14 x19 +64 x8 x13 x15 x20 +576 x9 x10 x11 x12 +576 x9 x10 x12 x13 +512 x9 x10 x13 x14 +448 x9 x10 x14 x15 +384 x9 x10 x15 x16 +320 x9 x10 x16 x17 +256 x9 x10 x17 x18 +192 x9 x10 x18 x19 +128 x9 x10 x19 x20 +64 x9 x10 x20 x21 +512 x9 x11 x12 x14 +448 x9 x11 x13 x15 +384 x9 x11 x14 x16 +320 x9 x11 x15 x17 +256 x9 x11 x16 x18 +192 x9 x11 x17 x19 +128 x9 x11 x18 x20 +64 x9 x11 x19 x21 +384 x9 x12 x13 x16 +320 x9 x12 x14 x17 +256 x9 x12 x15 x18 +192 x9 x12 x16 x19 +128 x9 x12 x17 x20 +64 x9 x12 x18 x21 +256 x9 x13 x14 x18 +192 x9 x13 x15 x19 +128 x9 x13 x16 x20 +64 x9 x13 x17 x21 +128 x9 x14 x15 x20 +64 x9 x14 x16 x21 +640 x10 x11 x12 x13 +576 x10 x11 x13 x14 +512 x10 x11 x14 x15 +448 x10 x11 x15 x16 +384 x10 x11 x16 x17 +320 x10 x11 x17 x18 +256 x10 x11 x18 x19 +192 x10 x11 x19 x20 +128 x10 x11 x20 x21 +64 x10 x11 x21 x22 +512 x10 x12 x13 x15 +448 x10 x12 x14 x16 +384 x10 x12 x15 x17 +320 x10 x12 x16 x18 +256 x10 x12 x17 x19 +192 x10 x12 x18 x20 +128 x10 x12 x19 x21 +64 x10 x12 x20 x22 +384 x10 x13 x14 x17 +320 x10 x13 x15 x18 +256 x10 x13 x16 x19 +192 x10 x13 x17 x20 +128 x10 x13 x18 x21 +64 x10 x13 x19 x22 +256 x10 x14 x15 x19 +192 x10 x14 x16 x20 +128 x10 x14 x17 x21 +64 x10 x14 x18 x22 +128 x10 x15 x16 x21 +64 x10 x15 x17 x22 +640 x11 x12 x13 x14 +576 x11 x12 x14 x15 +512 x11 x12 x15 x16 +448 x11 x12 x16 x17 +384 x11 x12 x17 x18 +320 x11 x12 x18 x19 +256 x11 x12 x19 x20 +192 x11 x12 x20 x21 +128 x11 x12 x21 x22 +64 x11 x12 x22 x23 +512 x11 x13 x14 x16 +448 x11 x13 x15 x17 +384 x11 x13 x16 x18 +320 x11 x13 x17 x19 +256 x11 x13 x18 x20 +192 x11 x13 x19 x21 +128 x11 x13 x20 x22 +64 x11 x13 x21 x23 +384 x11 x14 x15 x18 +320 x11 x14 x16 x19 +256 x11 x14 x17 x20 +192 x11 x14 x18 x21 +128 x11 x14 x19 x22 +64 x11 x14 x20 x23 +256 x11 x15 x16 x20 +192 x11 x15 x17 x21 +128 x11 x15 x18 x22 +64 x11 x15 x19 x23 +128 x11 x16 x17 x22 +64 x11 x16 x18 x23 +640 x12 x13 x14 x15 +576 x12 x13 x15 x16 +512 x12 x13 x16 x17 +448 x12 x13 x17 x18 +384 x12 x13 x18 x19 +320 x12 x13 x19 x20 +256 x12 x13 x20 x21 +192 x12 x13 x21 x22 +128 x12 x13 x22 x23 +64 x12 x13 x23 x24 +512 x12 x14 x15 x17 +448 x12 x14 x16 x18 +384 x12 x14 x17 x19 +320 x12 x14 x18 x20 +256 x12 x14 x19 x21 +192 x12 x14 x20 x22 +128 x12 x14 x21 x23 +64 x12 x14 x22 x24 +384 x12 x15 x16 x19 +320 x12 x15 x17 x20 +256 x12 x15 x18 x21 +192 x12 x15 x19 x22 +128 x12 x15 x20 x23 +64 x12 x15 x21 x24 +256 x12 x16 x17 x21 +192 x12 x16 x18 x22 +128 x12 x16 x19 x23 +64 x12 x16 x20 x24 +128 x12 x17 x18 x23 +64 x12 x17 x19 x24 +640 x13 x14 x15 x16 +576 x13 x14 x16 x17 +512 x13 x14 x17 x18 +448 x13 x14 x18 x19 +384 x13 x14 x19 x20 +320 x13 x14 x20 x21 +256 x13 x14 x21 x22 +192 x13 x14 x22 x23 +128 x13 x14 x23 x24 +64 x13 x14 x24 x25 +512 x13 x15 x16 x18 +448 x13 x15 x17 x19 +384 x13 x15 x18 x20 +320 x13 x15 x19 x21 +256 x13 x15 x20 x22 +192 x13 x15 x21 x23 +128 x13 x15 x22 x24 +64 x13 x15 x23 x25 +384 x13 x16 x17 x20 +320 x13 x16 x18 x21 +256 x13 x16 x19 x22 +192 x13 x16 x20 x23 +128 x13 x16 x21 x24 +64 x13 x16 x22 x25 +256 x13 x17 x18 x22 +192 x13 x17 x19 x23 +128 x13 x17 x20 x24 +64 x13 x17 x21 x25 +128 x13 x18 x19 x24 +64 x13 x18 x20 x25 +576 x14 x15 x16 x17 +512 x14 x15 x17 x18 +448 x14 x15 x18 x19 +384 x14 x15 x19 x20 +320 x14 x15 x20 x21 +256 x14 x15 x21 x22 +192 x14 x15 x22 x23 +128 x14 x15 x23 x24 +64 x14 x15 x24 x25 +448 x14 x16 x17 x19 +384 x14 x16 x18 x20 +320 x14 x16 x19 x21 +256 x14 x16 x20 x22 +192 x14 x16 x21 x23 +128 x14 x16 x22 x24 +64 x14 x16 x23 x25 +320 x14 x17 x18 x21 +256 x14 x17 x19 x22 +192 x14 x17 x20 x23 +128 x14 x17 x21 x24 +64 x14 x17 x22 x25 +192 x14 x18 x19 x23 +128 x14 x18 x20 x24 +64 x14 x18 x21 x25 +64 x14 x19 x20 x25 +512 x15 x16 x17 x18 +448 x15 x16 x18 x19 +384 x15 x16 x19 x20 +320 x15 x16 x20 x21 +256 x15 x16 x21 x22 +192 x15 x16 x22 x23 +128 x15 x16 x23 x24 +64 x15 x16 x24 x25 +384 x15 x17 x18 x20 +320 x15 x17 x19 x21 +256 x15 x17 x20 x22 +192 x15 x17 x21 x23 +128 x15 x17 x22 x24 +64 x15 x17 x23 x25 +256 x15 x18 x19 x22 +192 x15 x18 x20 x23 +128 x15 x18 x21 x24 +64 x15 x18 x22 x25 +128 x15 x19 x20 x24 +64 x15 x19 x21 x25 +448 x16 x17 x18 x19 +384 x16 x17 x19 x20 +320 x16 x17 x20 x21 +256 x16 x17 x21 x22 +192 x16 x17 x22 x23 +128 x16 x17 x23 x24 +64 x16 x17 x24 x25 +320 x16 x18 x19 x21 +256 x16 x18 x20 x22 +192 x16 x18 x21 x23 +128 x16 x18 x22 x24 +64 x16 x18 x23 x25 +192 x16 x19 x20 x23 +128 x16 x19 x21 x24 +64 x16 x19 x22 x25 +64 x16 x20 x21 x25 +384 x17 x18 x19 x20 +320 x17 x18 x20 x21 +256 x17 x18 x21 x22 +192 x17 x18 x22 x23 +128 x17 x18 x23 x24 +64 x17 x18 x24 x25 +256 x17 x19 x20 x22 +192 x17 x19 x21 x23 +128 x17 x19 x22 x24 +64 x17 x19 x23 x25 +128 x17 x20 x21 x24 +64 x17 x20 x22 x25 +320 x18 x19 x20 x21 +256 x18 x19 x21 x22 +192 x18 x19 x22 x23 +128 x18 x19 x23 x24 +64 x18 x19 x24 x25 +192 x18 x20 x21 x23 +128 x18 x20 x22 x24 +64 x18 x20 x23 x25 +64 x18 x21 x22 x25 +256 x19 x20 x21 x22 +192 x19 x20 x22 x23 +128 x19 x20 x23 x24 +64 x19 x20 x24 x25 +128 x19 x21 x22 x24 +64 x19 x21 x23 x25 +192 x20 x21 x22 x23 +128 x20 x21 x23 x24 +64 x20 x21 x24 x25 +64 x20 x22 x23 x25 +128 x21 x22 x23 x24 +64 x21 x22 x24 x25 +64 x22 x23 x24 x25 -32 x1 x2 x3 -64 x1 x2 x4 -64 x1 x2 x5 -64 x1 x2 x6 -64 x1 x2 x7 -64 x1 x2 x8 -64 x1 x2 x9 -64 x1 x2 x10 -64 x1 x2 x11 -64 x1 x2 x12 -32 x1 x2 x13 -64 x1 x3 x4 -32 x1 x3 x5 -64 x1 x3 x6 -64 x1 x3 x7 -64 x1 x3 x8 -64 x1 x3 x9 -64 x1 x3 x10 -64 x1 x3 x11 -32 x1 x3 x12 -32 x1 x3 x13 -64 x1 x4 x5 -64 x1 x4 x6 -32 x1 x4 x7 -64 x1 x4 x8 -64 x1 x4 x9 -64 x1 x4 x10 -32 x1 x4 x11 -32 x1 x4 x12 -32 x1 x4 x13 -64 x1 x5 x6 -64 x1 x5 x7 -64 x1 x5 x8 -32 x1 x5 x9 -32 x1 x5 x10 -32 x1 x5 x11 -32 x1 x5 x12 -32 x1 x5 x13 -64 x1 x6 x7 -64 x1 x6 x8 -32 x1 x6 x9 -32 x1 x6 x10 -32 x1 x6 x12 -32 x1 x6 x13 -32 x1 x7 x8 -32 x1 x7 x9 -32 x1 x7 x10 -32 x1 x7 x11 -32 x1 x7 x12 -32 x1 x8 x9 -32 x1 x8 x10 -32 x1 x8 x11 -32 x1 x8 x12 -32 x1 x8 x13 -32 x1 x9 x10 -32 x1 x9 x11 -32 x1 x9 x12 -32 x1 x9 x13 -32 x1 x10 x11 -32 x1 x10 x12 -32 x1 x10 x13 -32 x1 x11 x12 -32 x1 x11 x13 -32 x1 x12 x13 -96 x2 x3 x4 -128 x2 x3 x5 -128 x2 x3 x6 -128 x2 x3 x7 -128 x2 x3 x8 -128 x2 x3 x9 -128 x2 x3 x10 -128 x2 x3 x11 -128 x2 x3 x12 -96 x2 x3 x13 -32 x2 x3 x14 -160 x2 x4 x5 -64 x2 x4 x6 -128 x2 x4 x7 -128 x2 x4 x8 -128 x2 x4 x9 -128 x2 x4 x10 -128 x2 x4 x11 -96 x2 x4 x12 -64 x2 x4 x13 -32 x2 x4 x14 -160 x2 x5 x6 -128 x2 x5 x7 -64 x2 x5 x8 -128 x2 x5 x9 -128 x2 x5 x10 -96 x2 x5 x11 -64 x2 x5 x12 -64 x2 x5 x13 -32 x2 x5 x14 -160 x2 x6 x7 -128 x2 x6 x8 -128 x2 x6 x9 -32 x2 x6 x10 -64 x2 x6 x11 -64 x2 x6 x12 -64 x2 x6 x13 -32 x2 x6 x14 -160 x2 x7 x8 -96 x2 x7 x9 -64 x2 x7 x10 -64 x2 x7 x11 -64 x2 x7 x13 -32 x2 x7 x14 -96 x2 x8 x9 -64 x2 x8 x10 -64 x2 x8 x11 -64 x2 x8 x12 -64 x2 x8 x13 -96 x2 x9 x10 -64 x2 x9 x11 -64 x2 x9 x12 -64 x2 x9 x13 -32 x2 x9 x14 -96 x2 x10 x11 -64 x2 x10 x12 -64 x2 x10 x13 -32 x2 x10 x14 -96 x2 x11 x12 -64 x2 x11 x13 -32 x2 x11 x14 -96 x2 x12 x13 -32 x2 x12 x14 -32 x2 x13 x14 -160 x3 x4 x5 -224 x3 x4 x6 -192 x3 x4 x7 -192 x3 x4 x8 -192 x3 x4 x9 -192 x3 x4 x10 -192 x3 x4 x11 -192 x3 x4 x12 -160 x3 x4 x13 -96 x3 x4 x14 -32 x3 x4 x15 -256 x3 x5 x6 -128 x3 x5 x7 -192 x3 x5 x8 -192 x3 x5 x9 -192 x3 x5 x10 -192 x3 x5 x11 -160 x3 x5 x12 -128 x3 x5 x13 -64 x3 x5 x14 -32 x3 x5 x15 -256 x3 x6 x7 -224 x3 x6 x8 -96 x3 x6 x9 -192 x3 x6 x10 -160 x3 x6 x11 -128 x3 x6 x12 -96 x3 x6 x13 -64 x3 x6 x14 -32 x3 x6 x15 -256 x3 x7 x8 -224 x3 x7 x9 -160 x3 x7 x10 -32 x3 x7 x11 -96 x3 x7 x12 -96 x3 x7 x13 -64 x3 x7 x14 -32 x3 x7 x15 -224 x3 x8 x9 -160 x3 x8 x10 -96 x3 x8 x11 -96 x3 x8 x12 -64 x3 x8 x14 -32 x3 x8 x15 -160 x3 x9 x10 -128 x3 x9 x11 -96 x3 x9 x12 -96 x3 x9 x13 -64 x3 x9 x14 -160 x3 x10 x11 -128 x3 x10 x12 -96 x3 x10 x13 -64 x3 x10 x14 -32 x3 x10 x15 -160 x3 x11 x12 -128 x3 x11 x13 -64 x3 x11 x14 -32 x3 x11 x15 -160 x3 x12 x13 -64 x3 x12 x14 -32 x3 x12 x15 -96 x3 x13 x14 -32 x3 x13 x15 -32 x3 x14 x15 -224 x4 x5 x6 -320 x4 x5 x7 -288 x4 x5 x8 -256 x4 x5 x9 -256 x4 x5 x10 -256 x4 x5 x11 -256 x4 x5 x12 -224 x4 x5 x13 -160 x4 x5 x14 -96 x4 x5 x15 -32 x4 x5 x16 -352 x4 x6 x7 -192 x4 x6 x8 -288 x4 x6 x9 -256 x4 x6 x10 -256 x4 x6 x11 -224 x4 x6 x12 -192 x4 x6 x13 -128 x4 x6 x14 -64 x4 x6 x15 -32 x4 x6 x16 -352 x4 x7 x8 -320 x4 x7 x9 -160 x4 x7 x10 -224 x4 x7 x11 -192 x4 x7 x12 -160 x4 x7 x13 -96 x4 x7 x14 -64 x4 x7 x15 -32 x4 x7 x16 -352 x4 x8 x9 -288 x4 x8 x10 -224 x4 x8 x11 -32 x4 x8 x12 -128 x4 x8 x13 -96 x4 x8 x14 -64 x4 x8 x15 -32 x4 x8 x16 -288 x4 x9 x10 -224 x4 x9 x11 -160 x4 x9 x12 -128 x4 x9 x13 -64 x4 x9 x15 -32 x4 x9 x16 -224 x4 x10 x11 -192 x4 x10 x12 -160 x4 x10 x13 -96 x4 x10 x14 -64 x4 x10 x15 -224 x4 x11 x12 -192 x4 x11 x13 -96 x4 x11 x14 -64 x4 x11 x15 -32 x4 x11 x16 -224 x4 x12 x13 -128 x4 x12 x14 -64 x4 x12 x15 -32 x4 x12 x16 -160 x4 x13 x14 -64 x4 x13 x15 -32 x4 x13 x16 -96 x4 x14 x15 -32 x4 x14 x16 -32 x4 x15 x16 -288 x5 x6 x7 -416 x5 x6 x8 -384 x5 x6 x9 -352 x5 x6 x10 -320 x5 x6 x11 -320 x5 x6 x12 -288 x5 x6 x13 -224 x5 x6 x14 -160 x5 x6 x15 -96 x5 x6 x16 -32 x5 x6 x17 -448 x5 x7 x8 -256 x5 x7 x9 -384 x5 x7 x10 -352 x5 x7 x11 -288 x5 x7 x12 -256 x5 x7 x13 -192 x5 x7 x14 -128 x5 x7 x15 -64 x5 x7 x16 -32 x5 x7 x17 -448 x5 x8 x9 -416 x5 x8 x10 -192 x5 x8 x11 -288 x5 x8 x12 -224 x5 x8 x13 -160 x5 x8 x14 -96 x5 x8 x15 -64 x5 x8 x16 -32 x5 x8 x17 -416 x5 x9 x10 -352 x5 x9 x11 -288 x5 x9 x12 -64 x5 x9 x13 -128 x5 x9 x14 -96 x5 x9 x15 -64 x5 x9 x16 -32 x5 x9 x17 -352 x5 x10 x11 -288 x5 x10 x12 -224 x5 x10 x13 -128 x5 x10 x14 -64 x5 x10 x16 -32 x5 x10 x17 -288 x5 x11 x12 -256 x5 x11 x13 -160 x5 x11 x14 -96 x5 x11 x15 -64 x5 x11 x16 -288 x5 x12 x13 -192 x5 x12 x14 -96 x5 x12 x15 -64 x5 x12 x16 -32 x5 x12 x17 -224 x5 x13 x14 -128 x5 x13 x15 -64 x5 x13 x16 -32 x5 x13 x17 -160 x5 x14 x15 -64 x5 x14 x16 -32 x5 x14 x17 -96 x5 x15 x16 -32 x5 x15 x17 -32 x5 x16 x17 -352 x6 x7 x8 -512 x6 x7 x9 -480 x6 x7 x10 -448 x6 x7 x11 -416 x6 x7 x12 -352 x6 x7 x13 -288 x6 x7 x14 -224 x6 x7 x15 -160 x6 x7 x16 -96 x6 x7 x17 -32 x6 x7 x18 -544 x6 x8 x9 -320 x6 x8 x10 -480 x6 x8 x11 -416 x6 x8 x12 -352 x6 x8 x13 -256 x6 x8 x14 -192 x6 x8 x15 -128 x6 x8 x16 -64 x6 x8 x17 -32 x6 x8 x18 -544 x6 x9 x10 -480 x6 x9 x11 -224 x6 x9 x12 -352 x6 x9 x13 -224 x6 x9 x14 -160 x6 x9 x15 -96 x6 x9 x16 -64 x6 x9 x17 -32 x6 x9 x18 -480 x6 x10 x11 -416 x6 x10 x12 -352 x6 x10 x13 -64 x6 x10 x14 -128 x6 x10 x15 -96 x6 x10 x16 -64 x6 x10 x17 -32 x6 x10 x18 -416 x6 x11 x12 -352 x6 x11 x13 -224 x6 x11 x14 -128 x6 x11 x15 -64 x6 x11 x17 -32 x6 x11 x18 -352 x6 x12 x13 -256 x6 x12 x14 -160 x6 x12 x15 -96 x6 x12 x16 -64 x6 x12 x17 -288 x6 x13 x14 -192 x6 x13 x15 -96 x6 x13 x16 -64 x6 x13 x17 -32 x6 x13 x18 -224 x6 x14 x15 -128 x6 x14 x16 -64 x6 x14 x17 -32 x6 x14 x18 -160 x6 x15 x16 -64 x6 x15 x17 -32 x6 x15 x18 -96 x6 x16 x17 -32 x6 x16 x18 -32 x6 x17 x18 -416 x7 x8 x9 -608 x7 x8 x10 -576 x7 x8 x11 -544 x7 x8 x12 -480 x7 x8 x13 -352 x7 x8 x14 -288 x7 x8 x15 -224 x7 x8 x16 -160 x7 x8 x17 -96 x7 x8 x18 -32 x7 x8 x19 -640 x7 x9 x10 -384 x7 x9 x11 -544 x7 x9 x12 -480 x7 x9 x13 -352 x7 x9 x14 -256 x7 x9 x15 -192 x7 x9 x16 -128 x7 x9 x17 -64 x7 x9 x18 -32 x7 x9 x19 -608 x7 x10 x11 -544 x7 x10 x12 -256 x7 x10 x13 -352 x7 x10 x14 -224 x7 x10 x15 -160 x7 x10 x16 -96 x7 x10 x17 -64 x7 x10 x18 -32 x7 x10 x19 -544 x7 x11 x12 -480 x7 x11 x13 -352 x7 x11 x14 -64 x7 x11 x15 -128 x7 x11 x16 -96 x7 x11 x17 -64 x7 x11 x18 -32 x7 x11 x19 -480 x7 x12 x13 -352 x7 x12 x14 -224 x7 x12 x15 -128 x7 x12 x16 -64 x7 x12 x18 -32 x7 x12 x19 -352 x7 x13 x14 -256 x7 x13 x15 -160 x7 x13 x16 -96 x7 x13 x17 -64 x7 x13 x18 -288 x7 x14 x15 -192 x7 x14 x16 -96 x7 x14 x17 -64 x7 x14 x18 -32 x7 x14 x19 -224 x7 x15 x16 -128 x7 x15 x17 -64 x7 x15 x18 -32 x7 x15 x19 -160 x7 x16 x17 -64 x7 x16 x18 -32 x7 x16 x19 -96 x7 x17 x18 -32 x7 x17 x19 -32 x7 x18 x19 -480 x8 x9 x10 -704 x8 x9 x11 -672 x8 x9 x12 -608 x8 x9 x13 -480 x8 x9 x14 -352 x8 x9 x15 -288 x8 x9 x16 -224 x8 x9 x17 -160 x8 x9 x18 -96 x8 x9 x19 -32 x8 x9 x20 -736 x8 x10 x11 -416 x8 x10 x12 -608 x8 x10 x13 -480 x8 x10 x14 -352 x8 x10 x15 -256 x8 x10 x16 -192 x8 x10 x17 -128 x8 x10 x18 -64 x8 x10 x19 -32 x8 x10 x20 -672 x8 x11 x12 -608 x8 x11 x13 -256 x8 x11 x14 -352 x8 x11 x15 -224 x8 x11 x16 -160 x8 x11 x17 -96 x8 x11 x18 -64 x8 x11 x19 -32 x8 x11 x20 -608 x8 x12 x13 -480 x8 x12 x14 -352 x8 x12 x15 -64 x8 x12 x16 -128 x8 x12 x17 -96 x8 x12 x18 -64 x8 x12 x19 -32 x8 x12 x20 -480 x8 x13 x14 -352 x8 x13 x15 -224 x8 x13 x16 -128 x8 x13 x17 -64 x8 x13 x19 -32 x8 x13 x20 -352 x8 x14 x15 -256 x8 x14 x16 -160 x8 x14 x17 -96 x8 x14 x18 -64 x8 x14 x19 -288 x8 x15 x16 -192 x8 x15 x17 -96 x8 x15 x18 -64 x8 x15 x19 -32 x8 x15 x20 -224 x8 x16 x17 -128 x8 x16 x18 -64 x8 x16 x19 -32 x8 x16 x20 -160 x8 x17 x18 -64 x8 x17 x19 -32 x8 x17 x20 -96 x8 x18 x19 -32 x8 x18 x20 -32 x8 x19 x20 -544 x9 x10 x11 -800 x9 x10 x12 -736 x9 x10 x13 -608 x9 x10 x14 -480 x9 x10 x15 -352 x9 x10 x16 -288 x9 x10 x17 -224 x9 x10 x18 -160 x9 x10 x19 -96 x9 x10 x20 -32 x9 x10 x21 -800 x9 x11 x12 -448 x9 x11 x13 -608 x9 x11 x14 -480 x9 x11 x15 -352 x9 x11 x16 -256 x9 x11 x17 -192 x9 x11 x18 -128 x9 x11 x19 -64 x9 x11 x20 -32 x9 x11 x21 -736 x9 x12 x13 -608 x9 x12 x14 -256 x9 x12 x15 -352 x9 x12 x16 -224 x9 x12 x17 -160 x9 x12 x18 -96 x9 x12 x19 -64 x9 x12 x20 -32 x9 x12 x21 -608 x9 x13 x14 -480 x9 x13 x15 -352 x9 x13 x16 -64 x9 x13 x17 -128 x9 x13 x18 -96 x9 x13 x19 -64 x9 x13 x20 -32 x9 x13 x21 -480 x9 x14 x15 -352 x9 x14 x16 -224 x9 x14 x17 -128 x9 x14 x18 -64 x9 x14 x20 -32 x9 x14 x21 -352 x9 x15 x16 -256 x9 x15 x17 -160 x9 x15 x18 -96 x9 x15 x19 -64 x9 x15 x20 -288 x9 x16 x17 -192 x9 x16 x18 -96 x9 x16 x19 -64 x9 x16 x20 -32 x9 x16 x21 -224 x9 x17 x18 -128 x9 x17 x19 -64 x9 x17 x20 -32 x9 x17 x21 -160 x9 x18 x19 -64 x9 x18 x20 -32 x9 x18 x21 -96 x9 x19 x20 -32 x9 x19 x21 -32 x9 x20 x21 -608 x10 x11 x12 -864 x10 x11 x13 -736 x10 x11 x14 -608 x10 x11 x15 -480 x10 x11 x16 -352 x10 x11 x17 -288 x10 x11 x18 -224 x10 x11 x19 -160 x10 x11 x20 -96 x10 x11 x21 -32 x10 x11 x22 -864 x10 x12 x13 -448 x10 x12 x14 -608 x10 x12 x15 -480 x10 x12 x16 -352 x10 x12 x17 -256 x10 x12 x18 -192 x10 x12 x19 -128 x10 x12 x20 -64 x10 x12 x21 -32 x10 x12 x22 -736 x10 x13 x14 -608 x10 x13 x15 -256 x10 x13 x16 -352 x10 x13 x17 -224 x10 x13 x18 -160 x10 x13 x19 -96 x10 x13 x20 -64 x10 x13 x21 -32 x10 x13 x22 -608 x10 x14 x15 -480 x10 x14 x16 -352 x10 x14 x17 -64 x10 x14 x18 -128 x10 x14 x19 -96 x10 x14 x20 -64 x10 x14 x21 -32 x10 x14 x22 -480 x10 x15 x16 -352 x10 x15 x17 -224 x10 x15 x18 -128 x10 x15 x19 -64 x10 x15 x21 -32 x10 x15 x22 -352 x10 x16 x17 -256 x10 x16 x18 -160 x10 x16 x19 -96 x10 x16 x20 -64 x10 x16 x21 -288 x10 x17 x18 -192 x10 x17 x19 -96 x10 x17 x20 -64 x10 x17 x21 -32 x10 x17 x22 -224 x10 x18 x19 -128 x10 x18 x20 -64 x10 x18 x21 -32 x10 x18 x22 -160 x10 x19 x20 -64 x10 x19 x21 -32 x10 x19 x22 -96 x10 x20 x21 -32 x10 x20 x22 -32 x10 x21 x22 -640 x11 x12 x13 -864 x11 x12 x14 -736 x11 x12 x15 -608 x11 x12 x16 -480 x11 x12 x17 -352 x11 x12 x18 -288 x11 x12 x19 -224 x11 x12 x20 -160 x11 x12 x21 -96 x11 x12 x22 -32 x11 x12 x23 -864 x11 x13 x14 -448 x11 x13 x15 -608 x11 x13 x16 -480 x11 x13 x17 -352 x11 x13 x18 -256 x11 x13 x19 -192 x11 x13 x20 -128 x11 x13 x21 -64 x11 x13 x22 -32 x11 x13 x23 -736 x11 x14 x15 -608 x11 x14 x16 -256 x11 x14 x17 -352 x11 x14 x18 -224 x11 x14 x19 -160 x11 x14 x20 -96 x11 x14 x21 -64 x11 x14 x22 -32 x11 x14 x23 -608 x11 x15 x16 -480 x11 x15 x17 -352 x11 x15 x18 -64 x11 x15 x19 -128 x11 x15 x20 -96 x11 x15 x21 -64 x11 x15 x22 -32 x11 x15 x23 -480 x11 x16 x17 -352 x11 x16 x18 -224 x11 x16 x19 -128 x11 x16 x20 -64 x11 x16 x22 -32 x11 x16 x23 -352 x11 x17 x18 -256 x11 x17 x19 -160 x11 x17 x20 -96 x11 x17 x21 -64 x11 x17 x22 -288 x11 x18 x19 -192 x11 x18 x20 -96 x11 x18 x21 -64 x11 x18 x22 -32 x11 x18 x23 -224 x11 x19 x20 -128 x11 x19 x21 -64 x11 x19 x22 -32 x11 x19 x23 -160 x11 x20 x21 -64 x11 x20 x22 -32 x11 x20 x23 -96 x11 x21 x22 -32 x11 x21 x23 -32 x11 x22 x23 -640 x12 x13 x14 -864 x12 x13 x15 -736 x12 x13 x16 -608 x12 x13 x17 -480 x12 x13 x18 -352 x12 x13 x19 -288 x12 x13 x20 -224 x12 x13 x21 -160 x12 x13 x22 -96 x12 x13 x23 -32 x12 x13 x24 -864 x12 x14 x15 -448 x12 x14 x16 -608 x12 x14 x17 -480 x12 x14 x18 -352 x12 x14 x19 -256 x12 x14 x20 -192 x12 x14 x21 -128 x12 x14 x22 -64 x12 x14 x23 -32 x12 x14 x24 -736 x12 x15 x16 -608 x12 x15 x17 -256 x12 x15 x18 -352 x12 x15 x19 -224 x12 x15 x20 -160 x12 x15 x21 -96 x12 x15 x22 -64 x12 x15 x23 -32 x12 x15 x24 -608 x12 x16 x17 -480 x12 x16 x18 -352 x12 x16 x19 -64 x12 x16 x20 -128 x12 x16 x21 -96 x12 x16 x22 -64 x12 x16 x23 -32 x12 x16 x24 -480 x12 x17 x18 -352 x12 x17 x19 -224 x12 x17 x20 -128 x12 x17 x21 -64 x12 x17 x23 -32 x12 x17 x24 -352 x12 x18 x19 -256 x12 x18 x20 -160 x12 x18 x21 -96 x12 x18 x22 -64 x12 x18 x23 -288 x12 x19 x20 -192 x12 x19 x21 -96 x12 x19 x22 -64 x12 x19 x23 -32 x12 x19 x24 -224 x12 x20 x21 -128 x12 x20 x22 -64 x12 x20 x23 -32 x12 x20 x24 -160 x12 x21 x22 -64 x12 x21 x23 -32 x12 x21 x24 -96 x12 x22 x23 -32 x12 x22 x24 -32 x12 x23 x24 -640 x13 x14 x15 -864 x13 x14 x16 -736 x13 x14 x17 -608 x13 x14 x18 -480 x13 x14 x19 -352 x13 x14 x20 -288 x13 x14 x21 -224 x13 x14 x22 -160 x13 x14 x23 -96 x13 x14 x24 -32 x13 x14 x25 -864 x13 x15 x16 -448 x13 x15 x17 -608 x13 x15 x18 -480 x13 x15 x19 -352 x13 x15 x20 -256 x13 x15 x21 -192 x13 x15 x22 -128 x13 x15 x23 -64 x13 x15 x24 -32 x13 x15 x25 -736 x13 x16 x17 -608 x13 x16 x18 -256 x13 x16 x19 -352 x13 x16 x20 -224 x13 x16 x21 -160 x13 x16 x22 -96 x13 x16 x23 -64 x13 x16 x24 -32 x13 x16 x25 -608 x13 x17 x18 -480 x13 x17 x19 -352 x13 x17 x20 -64 x13 x17 x21 -128 x13 x17 x22 -96 x13 x17 x23 -64 x13 x17 x24 -32 x13 x17 x25 -480 x13 x18 x19 -352 x13 x18 x20 -224 x13 x18 x21 -128 x13 x18 x22 -64 x13 x18 x24 -32 x13 x18 x25 -352 x13 x19 x20 -256 x13 x19 x21 -160 x13 x19 x22 -96 x13 x19 x23 -64 x13 x19 x24 -288 x13 x20 x21 -192 x13 x20 x22 -96 x13 x20 x23 -64 x13 x20 x24 -32 x13 x20 x25 -224 x13 x21 x22 -128 x13 x21 x23 -64 x13 x21 x24 -32 x13 x21 x25 -160 x13 x22 x23 -64 x13 x22 x24 -32 x13 x22 x25 -96 x13 x23 x24 -32 x13 x23 x25 -32 x13 x24 x25 -608 x14 x15 x16 -800 x14 x15 x17 -672 x14 x15 x18 -544 x14 x15 x19 -416 x14 x15 x20 -288 x14 x15 x21 -224 x14 x15 x22 -160 x14 x15 x23 -96 x14 x15 x24 -32 x14 x15 x25 -800 x14 x16 x17 -416 x14 x16 x18 -544 x14 x16 x19 -416 x14 x16 x20 -288 x14 x16 x21 -192 x14 x16 x22 -128 x14 x16 x23 -64 x14 x16 x24 -32 x14 x16 x25 -672 x14 x17 x18 -544 x14 x17 x19 -224 x14 x17 x20 -288 x14 x17 x21 -160 x14 x17 x22 -96 x14 x17 x23 -64 x14 x17 x24 -32 x14 x17 x25 -544 x14 x18 x19 -416 x14 x18 x20 -288 x14 x18 x21 -32 x14 x18 x22 -96 x14 x18 x23 -64 x14 x18 x24 -32 x14 x18 x25 -416 x14 x19 x20 -288 x14 x19 x21 -192 x14 x19 x22 -96 x14 x19 x23 -32 x14 x19 x25 -320 x14 x20 x21 -224 x14 x20 x22 -128 x14 x20 x23 -64 x14 x20 x24 -32 x14 x20 x25 -256 x14 x21 x22 -160 x14 x21 x23 -64 x14 x21 x24 -32 x14 x21 x25 -192 x14 x22 x23 -96 x14 x22 x24 -32 x14 x22 x25 -128 x14 x23 x24 -32 x14 x23 x25 -64 x14 x24 x25 -544 x15 x16 x17 -736 x15 x16 x18 -608 x15 x16 x19 -480 x15 x16 x20 -352 x15 x16 x21 -224 x15 x16 x22 -160 x15 x16 x23 -96 x15 x16 x24 -32 x15 x16 x25 -704 x15 x17 x18 -384 x15 x17 x19 -480 x15 x17 x20 -352 x15 x17 x21 -224 x15 x17 x22 -128 x15 x17 x23 -64 x15 x17 x24 -32 x15 x17 x25 -576 x15 x18 x19 -480 x15 x18 x20 -192 x15 x18 x21 -224 x15 x18 x22 -96 x15 x18 x23 -64 x15 x18 x24 -32 x15 x18 x25 -448 x15 x19 x20 -352 x15 x19 x21 -224 x15 x19 x22 -32 x15 x19 x23 -64 x15 x19 x24 -32 x15 x19 x25 -320 x15 x20 x21 -256 x15 x20 x22 -160 x15 x20 x23 -64 x15 x20 x24 -256 x15 x21 x22 -192 x15 x21 x23 -96 x15 x21 x24 -32 x15 x21 x25 -192 x15 x22 x23 -128 x15 x22 x24 -32 x15 x22 x25 -128 x15 x23 x24 -64 x15 x23 x25 -64 x15 x24 x25 -480 x16 x17 x18 -640 x16 x17 x19 -544 x16 x17 x20 -416 x16 x17 x21 -288 x16 x17 x22 -160 x16 x17 x23 -96 x16 x17 x24 -32 x16 x17 x25 -608 x16 x18 x19 -320 x16 x18 x20 -416 x16 x18 x21 -288 x16 x18 x22 -160 x16 x18 x23 -64 x16 x18 x24 -32 x16 x18 x25 -480 x16 x19 x20 -384 x16 x19 x21 -160 x16 x19 x22 -160 x16 x19 x23 -64 x16 x19 x24 -32 x16 x19 x25 -352 x16 x20 x21 -256 x16 x20 x22 -192 x16 x20 x23 -32 x16 x20 x24 -32 x16 x20 x25 -256 x16 x21 x22 -192 x16 x21 x23 -128 x16 x21 x24 -32 x16 x21 x25 -192 x16 x22 x23 -128 x16 x22 x24 -64 x16 x22 x25 -128 x16 x23 x24 -64 x16 x23 x25 -64 x16 x24 x25 -416 x17 x18 x19 -544 x17 x18 x20 -448 x17 x18 x21 -352 x17 x18 x22 -224 x17 x18 x23 -96 x17 x18 x24 -32 x17 x18 x25 -512 x17 x19 x20 -256 x17 x19 x21 -320 x17 x19 x22 -224 x17 x19 x23 -96 x17 x19 x24 -32 x17 x19 x25 -384 x17 x20 x21 -288 x17 x20 x22 -96 x17 x20 x23 -128 x17 x20 x24 -32 x17 x20 x25 -256 x17 x21 x22 -192 x17 x21 x23 -128 x17 x21 x24 -32 x17 x21 x25 -192 x17 x22 x23 -128 x17 x22 x24 -64 x17 x22 x25 -128 x17 x23 x24 -64 x17 x23 x25 -64 x17 x24 x25 -352 x18 x19 x20 -448 x18 x19 x21 -352 x18 x19 x22 -256 x18 x19 x23 -160 x18 x19 x24 -32 x18 x19 x25 -416 x18 x20 x21 -192 x18 x20 x22 -224 x18 x20 x23 -128 x18 x20 x24 -64 x18 x20 x25 -288 x18 x21 x22 -192 x18 x21 x23 -64 x18 x21 x24 -64 x18 x21 x25 -192 x18 x22 x23 -128 x18 x22 x24 -64 x18 x22 x25 -128 x18 x23 x24 -64 x18 x23 x25 -64 x18 x24 x25 -288 x19 x20 x21 -352 x19 x20 x22 -256 x19 x20 x23 -160 x19 x20 x24 -64 x19 x20 x25 -320 x19 x21 x22 -128 x19 x21 x23 -128 x19 x21 x24 -64 x19 x21 x25 -192 x19 x22 x23 -128 x19 x22 x24 -32 x19 x22 x25 -128 x19 x23 x24 -64 x19 x23 x25 -64 x19 x24 x25 -224 x20 x21 x22 -256 x20 x21 x23 -160 x20 x21 x24 -64 x20 x21 x25 -224 x20 x22 x23 -64 x20 x22 x24 -64 x20 x22 x25 -128 x20 x23 x24 -64 x20 x23 x25 -64 x20 x24 x25 -160 x21 x22 x23 -160 x21 x22 x24 -64 x21 x22 x25 -128 x21 x23 x24 -32 x21 x23 x25 -64 x21 x24 x25 -96 x22 x23 x24 -64 x22 x23 x25 -64 x22 x24 x25 -32 x23 x24 x25 +160 x1 x2 +152 x1 x3 +144 x1 x4 +136 x1 x5 +128 x1 x6 +120 x1 x7 +128 x1 x8 +120 x1 x9 +112 x1 x10 +104 x1 x11 +96 x1 x12 +88 x1 x13 +320 x2 x3 +320 x2 x4 +304 x2 x5 +288 x2 x6 +272 x2 x7 +272 x2 x8 +272 x2 x9 +256 x2 x10 +240 x2 x11 +224 x2 x12 +192 x2 x13 +88 x2 x14 +496 x3 x4 +488 x3 x5 +480 x3 x6 +456 x3 x7 +432 x3 x8 +440 x3 x9 +432 x3 x10 +408 x3 x11 +368 x3 x12 +328 x3 x13 +192 x3 x14 +88 x3 x15 +688 x4 x5 +672 x4 x6 +656 x4 x7 +640 x4 x8 +624 x4 x9 +624 x4 x10 +592 x4 x11 +544 x4 x12 +480 x4 x13 +328 x4 x14 +192 x4 x15 +88 x4 x16 +896 x5 x6 +872 x5 x7 +848 x5 x8 +824 x5 x9 +816 x5 x10 +792 x5 x11 +736 x5 x12 +664 x5 x13 +480 x5 x14 +328 x5 x15 +192 x5 x16 +88 x5 x17 +1120 x6 x7 +1088 x6 x8 +1040 x6 x9 +1008 x6 x10 +976 x6 x11 +944 x6 x12 +864 x6 x13 +664 x6 x14 +480 x6 x15 +328 x6 x16 +192 x6 x17 +88 x6 x18 +1344 x7 x8 +1288 x7 x9 +1216 x7 x10 +1176 x7 x11 +1120 x7 x12 +1064 x7 x13 +864 x7 x14 +664 x7 x15 +480 x7 x16 +328 x7 x17 +192 x7 x18 +88 x7 x19 +1552 x8 x9 +1472 x8 x10 +1392 x8 x11 +1328 x8 x12 +1248 x8 x13 +1064 x8 x14 +864 x8 x15 +664 x8 x16 +480 x8 x17 +328 x8 x18 +192 x8 x19 +88 x8 x20 +1744 x9 x10 +1640 x9 x11 +1552 x9 x12 +1464 x9 x13 +1248 x9 x14 +1064 x9 x15 +864 x9 x16 +664 x9 x17 +480 x9 x18 +328 x9 x19 +192 x9 x20 +88 x9 x21 +1920 x10 x11 +1808 x10 x12 +1696 x10 x13 +1464 x10 x14 +1248 x10 x15 +1064 x10 x16 +864 x10 x17 +664 x10 x18 +480 x10 x19 +328 x10 x20 +192 x10 x21 +88 x10 x22 +2080 x11 x12 +1960 x11 x13 +1696 x11 x14 +1464 x11 x15 +1248 x11 x16 +1064 x11 x17 +864 x11 x18 +664 x11 x19 +480 x11 x20 +328 x11 x21 +192 x11 x22 +88 x11 x23 +2240 x12 x13 +1960 x12 x14 +1696 x12 x15 +1464 x12 x16 +1248 x12 x17 +1064 x12 x18 +864 x12 x19 +664 x12 x20 +480 x12 x21 +328 x12 x22 +192 x12 x23 +88 x12 x24 +2240 x13 x14 +1960 x13 x15 +1696 x13 x16 +1464 x13 x17 +1248 x13 x18 +1064 x13 x19 +864 x13 x20 +664 x13 x21 +480 x13 x22 +328 x13 x23 +192 x13 x24 +88 x13 x25 +2080 x14 x15 +1808 x14 x16 +1552 x14 x17 +1328 x14 x18 +1120 x14 x19 +944 x14 x20 +736 x14 x21 +544 x14 x22 +368 x14 x23 +224 x14 x24 +96 x14 x25 +1920 x15 x16 +1640 x15 x17 +1392 x15 x18 +1176 x15 x19 +976 x15 x20 +792 x15 x21 +592 x15 x22 +408 x15 x23 +240 x15 x24 +104 x15 x25 +1744 x16 x17 +1472 x16 x18 +1216 x16 x19 +1008 x16 x20 +816 x16 x21 +624 x16 x22 +432 x16 x23 +256 x16 x24 +112 x16 x25 +1552 x17 x18 +1288 x17 x19 +1040 x17 x20 +824 x17 x21 +624 x17 x22 +440 x17 x23 +272 x17 x24 +120 x17 x25 +1344 x18 x19 +1088 x18 x20 +848 x18 x21 +640 x18 x22 +432 x18 x23 +272 x18 x24 +128 x18 x25 +1120 x19 x20 +872 x19 x21 +656 x19 x22 +456 x19 x23 +272 x19 x24 +120 x19 x25 +896 x20 x21 +672 x20 x22 +480 x20 x23 +288 x20 x24 +128 x20 x25 +688 x21 x22 +488 x21 x23 +304 x21 x24 +136 x21 x25 +496 x22 x23 +320 x22 x24 +144 x22 x25 +320 x23 x24 +152 x23 x25 +160 x24 x25 -264 x1 -564 x2 -892 x3 -1240 x4 -1600 x5 -1964 x6 -2324 x7 -2688 x8 -3048 x9 -3396 x10 -3724 x11 -4024 x12 -4288 x13 -4024 x14 -3724 x15 -3396 x16 -3048 x17 -2688 x18 -2324 x19 -1964 x20 -1600 x21 -1240 x22 -892 x23 -564 x24 -264 x25 ;
+1 x1 >= 0 ;
